NAME : R110.1118832.tour
COMMENT : Cost = 0_1118832
COMMENT : Found by LKH [Keld Helsgaun] Thu Sep 14 01:33:37 2017
TYPE : TOUR
DIMENSION : 110
TOUR_SECTION
1
53
8
83
19
9
47
49
61
90
105
96
60
100
62
86
88
58
16
44
43
59
110
29
77
13
30
82
80
4
51
78
69
81
102
93
99
45
17
87
39
15
38
101
92
94
103
28
70
31
52
10
72
36
35
79
34
2
108
84
46
18
85
6
7
95
97
98
14
104
3
42
23
75
74
41
54
27
55
25
109
32
12
64
91
11
21
67
66
106
89
63
20
48
37
50
65
33
71
107
22
73
76
57
24
68
40
26
56
5
-1
EOF
